sat
(= |goto_symex::&92;guard#1| true)
(= |goto_symex::&92;guard#2| true)
(= |goto_symex::&92;guard#3| true)
(= |goto_symex::&92;guard#4| false)
(= |memory_model::choice_rf_1_6_0_11_T_0| true)
(= |memory_model::choice_rf_1_6_2_35_T_1| false)
(= |memory_model::choice_rf_1_6_3_38_T_2| false)
(= |memory_model::choice_rf_2_34_0_11_T_3| false)
(= |memory_model::choice_rf_2_34_1_7_T_4| true)
(= |memory_model::choice_rf_2_34_3_38_T_5| false)
(= |memory_model::choice_rf_3_37_0_11_T_6| false)
(= |memory_model::choice_rf_3_37_1_7_T_7| false)
(= |memory_model::choice_rf_3_37_2_35_T_8| true)
(= |memory_model::choice_rf_0_61_0_9_T_9| false)
(= |memory_model::choice_rf_0_61_0_57_T_10| true)
(= |memory_model::choice_rf_0_66_0_9_T_11| false)
(= |memory_model::choice_rf_0_66_0_57_T_12| false)
(= |memory_model::choice_rf_0_66_0_62_T_13| true)
(= |memory_model::choice_rf_1_2_0_37_F_14| true)
(= |memory_model::choice_rf_1_2_2_0_F_15| false)
(= |memory_model::choice_rf_0_70_0_12_F_16| false)
(= |memory_model::choice_rf_0_70_1_5_F_17| true)
(= |memory_model::choice_rf_0_70_2_33_F_18| false)
(= |memory_model::choice_rf_0_70_3_36_F_19| false)
(= |memory_model::choice_rf_1_4_0_12_F_20| false)
(= |memory_model::choice_rf_1_4_2_33_F_21| true)
(= |memory_model::choice_rf_1_4_3_36_F_22| false)
(= |memory_model::choice_rf_2_32_0_12_F_23| false)
(= |memory_model::choice_rf_2_32_1_5_F_24| false)
(= |memory_model::choice_rf_2_32_3_36_F_25| true)
(= |memory_model::choice_rf_3_35_0_12_F_26| true)
(= |memory_model::choice_rf_3_35_1_5_F_27| false)
(= |memory_model::choice_rf_3_35_2_33_F_28| false)
(= |memory_model::choice_rf_0_86_0_13_F_29| false)
(= |memory_model::choice_rf_0_86_1_1_F_30| true)
(= |memory_model::choice_rf_0_87_0_14_F_31| false)
(= |memory_model::choice_rf_0_87_1_3_F_32| true)
(= |memory_model::choice_rf_0_88_0_15_F_33| false)
(= |memory_model::choice_rf_0_88_3_7_F_34| false)
(= |memory_model::choice_rf_0_90_0_26_F_35| false)
(= |memory_model::choice_rf_0_90_3_21_F_36| true)
(= |memory_model::choice_rf_0_72_0_32_F_37| false)
(= |memory_model::choice_rf_0_72_0_71_F_38| true)
(= |memory_model::choice_rf_0_85_0_33_F_39| false)
(= |memory_model::choice_rf_0_95_0_33_F_40| false)
(= |memory_model::choice_rf_0_95_0_92_F_41| true)
(= |memory_model::choice_rf_0_96_0_33_F_42| false)
(= |memory_model::choice_rf_0_96_0_92_F_43| true)
(= |memory_model::choice_rf_0_73_0_38_F_44| false)
(= |memory_model::choice_rf_0_73_2_31_F_45| true)
(= |memory_model::choice_rf_0_73_3_16_F_46| false)
(= |memory_model::choice_rf_0_73_3_34_F_47| false)
(= |memory_model::choice_rf_2_20_0_38_F_48| false)
(= |memory_model::choice_rf_2_20_0_84_F_49| false)
(= |memory_model::choice_rf_2_20_3_16_F_50| false)
(= |memory_model::choice_rf_2_20_3_34_F_51| true)
(= |memory_model::choice_rf_3_6_0_38_F_52| true)
(= |memory_model::choice_rf_3_6_0_84_F_53| false)
(= |memory_model::choice_rf_3_6_2_31_F_54| false)
(= |memory_model::choice_rf_3_23_0_38_F_55| false)
(= |memory_model::choice_rf_3_23_0_84_F_56| false)
(= |memory_model::choice_rf_3_23_2_31_F_57| false)
(= |memory_model::choice_rf_3_23_3_16_F_58| true)
(= |memory_model::choice_rf_0_78_0_41_F_59| true)
(= |memory_model::choice_rf_2_7_0_41_F_60| true)
(= |memory_model::choice_rf_2_7_0_81_F_61| false)
(= |memory_model::choice_rf_2_4_0_42_F_62| true)
(= |memory_model::choice_rf_2_3_0_43_F_63| true)
(= |memory_model::choice_rf_2_25_0_43_F_64| false)
(= |memory_model::choice_rf_2_25_2_11_F_65| true)
(= |memory_model::choice_rf_2_5_0_44_F_66| false)
(= |memory_model::choice_rf_2_5_3_20_F_67| true)
(= |memory_model::choice_rf_2_5_3_31_F_68| false)
(= |memory_model::choice_rf_3_3_0_44_F_69| true)
(= |memory_model::choice_rf_3_27_0_44_F_70| false)
(= |memory_model::choice_rf_3_27_3_20_F_71| true)
(= |memory_model::choice_rf_0_77_0_45_F_72| false)
(= |memory_model::choice_rf_0_77_2_14_F_73| true)
(= |memory_model::choice_rf_2_6_0_45_F_74| false)
(= |memory_model::choice_rf_2_6_0_80_F_75| false)
(= |memory_model::choice_rf_2_2_0_46_F_76| false)
(= |memory_model::choice_rf_2_1_0_47_F_77| false)
(= |memory_model::choice_rf_2_22_0_47_F_78| false)
(= |memory_model::choice_rf_2_22_2_12_F_79| true)
(= |memory_model::choice_rf_2_8_0_48_F_80| false)
(= |memory_model::choice_rf_2_8_3_19_F_81| false)
(= |memory_model::choice_rf_2_8_3_30_F_82| false)
(= |memory_model::choice_rf_3_4_0_48_F_83| true)
(= |memory_model::choice_rf_3_4_2_15_F_84| false)
(= |memory_model::choice_rf_3_28_0_48_F_85| false)
(= |memory_model::choice_rf_3_28_2_15_F_86| true)
(= |memory_model::choice_rf_3_28_3_19_F_87| false)
(= |memory_model::choice_rf_0_76_0_51_F_88| false)
(= |memory_model::choice_rf_0_76_2_18_F_89| true)
(= |memory_model::choice_rf_0_76_3_12_F_90| false)
(= |memory_model::choice_rf_2_10_0_51_F_91| false)
(= |memory_model::choice_rf_2_10_3_12_F_92| true)
(= |memory_model::choice_rf_2_24_0_51_F_93| false)
(= |memory_model::choice_rf_2_24_2_18_F_94| true)
(= |memory_model::choice_rf_2_24_3_12_F_95| false)
(= |memory_model::choice_rf_3_2_0_51_F_96| true)
(= |memory_model::choice_rf_3_2_2_18_F_97| false)
(= |memory_model::choice_rf_3_26_0_51_F_98| false)
(= |memory_model::choice_rf_3_26_2_18_F_99| true)
(= |memory_model::choice_rf_3_26_3_12_F_100| false)
(= |memory_model::choice_rf_0_79_0_52_F_101| false)
(= |memory_model::choice_rf_0_79_2_16_F_102| false)
(= |memory_model::choice_rf_0_79_2_30_F_103| true)
(= |memory_model::choice_rf_0_79_3_18_F_104| false)
(= |memory_model::choice_rf_0_79_3_33_F_105| false)
(= |memory_model::choice_rf_2_9_0_52_F_106| false)
(= |memory_model::choice_rf_2_9_0_83_F_107| false)
(= |memory_model::choice_rf_2_9_3_18_F_108| true)
(= |memory_model::choice_rf_2_9_3_33_F_109| false)
(= |memory_model::choice_rf_2_26_0_52_F_110| false)
(= |memory_model::choice_rf_2_26_0_83_F_111| false)
(= |memory_model::choice_rf_2_26_2_16_F_112| false)
(= |memory_model::choice_rf_2_26_3_18_F_113| false)
(= |memory_model::choice_rf_2_26_3_33_F_114| true)
(= |memory_model::choice_rf_3_5_0_52_F_115| true)
(= |memory_model::choice_rf_3_5_0_83_F_116| false)
(= |memory_model::choice_rf_3_5_2_16_F_117| false)
(= |memory_model::choice_rf_3_5_2_30_F_118| false)
(= |memory_model::choice_rf_3_29_0_52_F_119| false)
(= |memory_model::choice_rf_3_29_0_83_F_120| false)
(= |memory_model::choice_rf_3_29_2_16_F_121| true)
(= |memory_model::choice_rf_3_29_2_30_F_122| false)
(= |memory_model::choice_rf_3_29_3_18_F_123| false)
(= |memory_model::choice_rf_0_74_0_53_F_124| false)
(= |memory_model::choice_rf_0_74_2_19_F_125| true)
(= |memory_model::choice_rf_0_74_3_17_F_126| false)
(= |memory_model::choice_rf_2_21_0_53_F_127| false)
(= |memory_model::choice_rf_2_21_2_19_F_128| true)
(= |memory_model::choice_rf_2_21_3_17_F_129| false)
(= |memory_model::choice_rf_3_0_0_53_F_130| true)
(= |memory_model::choice_rf_3_0_2_19_F_131| false)
(= |memory_model::choice_rf_3_24_0_53_F_132| false)
(= |memory_model::choice_rf_3_24_2_19_F_133| true)
(= |memory_model::choice_rf_3_24_3_17_F_134| false)
(= |memory_model::choice_rf_0_75_0_54_F_135| false)
(= |memory_model::choice_rf_0_75_2_17_F_136| false)
(= |memory_model::choice_rf_0_75_2_29_F_137| true)
(= |memory_model::choice_rf_0_75_3_13_F_138| false)
(= |memory_model::choice_rf_0_75_3_32_F_139| false)
(= |memory_model::choice_rf_2_23_0_54_F_140| false)
(= |memory_model::choice_rf_2_23_0_82_F_141| false)
(= |memory_model::choice_rf_2_23_2_17_F_142| false)
(= |memory_model::choice_rf_2_23_3_13_F_143| false)
(= |memory_model::choice_rf_2_23_3_32_F_144| true)
(= |memory_model::choice_rf_3_1_0_54_F_145| true)
(= |memory_model::choice_rf_3_1_0_82_F_146| false)
(= |memory_model::choice_rf_3_1_2_17_F_147| false)
(= |memory_model::choice_rf_3_1_2_29_F_148| false)
(= |memory_model::choice_rf_3_25_0_54_F_149| false)
(= |memory_model::choice_rf_3_25_0_82_F_150| false)
(= |memory_model::choice_rf_3_25_2_17_F_151| true)
(= |memory_model::choice_rf_3_25_2_29_F_152| false)
(= |memory_model::choice_rf_3_25_3_13_F_153| false)
(= |memory_model::choice_rf_1_0_0_55_F_154| false)
(= |memory_model::choice_rf_1_0_3_22_F_155| true)
(= |memory_model::choice_rf_0_91_0_35_F_156| false)
(= |memory_model::choice_rf_0_91_3_10_F_157| false)
(= |memory_model::choice_rf_0_89_0_2_F_158| true)
(= |memory_model::choice_ws-ext_0_11_1_7_T_159| true)
(= |memory_model::choice_ws-ext_0_11_2_35_T_160| true)
(= |memory_model::choice_ws-ext_0_11_3_38_T_161| true)
(= |memory_model::choice_ws-ext_1_7_2_35_T_162| true)
(= |memory_model::choice_ws-ext_1_7_3_38_T_163| true)
(= |memory_model::choice_ws-ext_2_35_3_38_T_164| true)
(= |memory_model::choice_ws-ext_0_37_2_0_F_165| true)
(= |memory_model::choice_ws-ext_0_12_1_5_F_166| true)
(= |memory_model::choice_ws-ext_0_12_2_33_F_167| true)
(= |memory_model::choice_ws-ext_0_12_3_36_F_168| true)
(= |memory_model::choice_ws-ext_1_5_2_33_F_169| false)
(= |memory_model::choice_ws-ext_1_5_3_36_F_170| false)
(= |memory_model::choice_ws-ext_2_33_3_36_F_171| false)
(= |memory_model::choice_ws-ext_0_13_1_1_F_172| true)
(= |memory_model::choice_ws-ext_0_14_1_3_F_173| true)
(= |memory_model::choice_ws-ext_0_15_3_7_F_174| true)
(= |memory_model::choice_ws-ext_0_93_3_7_F_175| false)
(= |memory_model::choice_ws-ext_0_26_3_21_F_176| true)
(= |memory_model::choice_ws-ext_0_27_3_8_F_177| true)
(= |memory_model::choice_ws-ext_0_38_2_31_F_178| true)
(= |memory_model::choice_ws-ext_0_38_3_16_F_179| true)
(= |memory_model::choice_ws-ext_0_38_3_34_F_180| true)
(= |memory_model::choice_ws-ext_0_84_2_31_F_181| false)
(= |memory_model::choice_ws-ext_0_84_3_16_F_182| false)
(= |memory_model::choice_ws-ext_0_84_3_34_F_183| false)
(= |memory_model::choice_ws-ext_2_31_3_16_F_184| false)
(= |memory_model::choice_ws-ext_2_31_3_34_F_185| false)
(= |memory_model::choice_ws-ext_0_39_3_14_F_186| true)
(= |memory_model::choice_ws-ext_0_40_3_15_F_187| true)
(= |memory_model::choice_ws-ext_0_43_2_11_F_188| true)
(= |memory_model::choice_ws-ext_0_43_2_28_F_189| true)
(= |memory_model::choice_ws-ext_0_44_3_20_F_190| true)
(= |memory_model::choice_ws-ext_0_44_3_31_F_191| true)
(= |memory_model::choice_ws-ext_0_45_2_14_F_192| true)
(= |memory_model::choice_ws-ext_0_80_2_14_F_193| false)
(= |memory_model::choice_ws-ext_0_46_2_13_F_194| true)
(= |memory_model::choice_ws-ext_0_47_2_12_F_195| true)
(= |memory_model::choice_ws-ext_0_47_2_27_F_196| true)
(= |memory_model::choice_ws-ext_0_48_2_15_F_197| true)
(= |memory_model::choice_ws-ext_0_48_3_19_F_198| true)
(= |memory_model::choice_ws-ext_0_48_3_30_F_199| true)
(= |memory_model::choice_ws-ext_2_15_3_19_F_200| false)
(= |memory_model::choice_ws-ext_2_15_3_30_F_201| true)
(= |memory_model::choice_ws-ext_0_51_2_18_F_202| true)
(= |memory_model::choice_ws-ext_0_51_3_12_F_203| true)
(= |memory_model::choice_ws-ext_2_18_3_12_F_204| false)
(= |memory_model::choice_ws-ext_0_52_2_16_F_205| true)
(= |memory_model::choice_ws-ext_0_52_2_30_F_206| true)
(= |memory_model::choice_ws-ext_0_52_3_18_F_207| true)
(= |memory_model::choice_ws-ext_0_52_3_33_F_208| true)
(= |memory_model::choice_ws-ext_0_83_2_16_F_209| false)
(= |memory_model::choice_ws-ext_0_83_2_30_F_210| false)
(= |memory_model::choice_ws-ext_0_83_3_18_F_211| false)
(= |memory_model::choice_ws-ext_0_83_3_33_F_212| false)
(= |memory_model::choice_ws-ext_2_16_3_18_F_213| false)
(= |memory_model::choice_ws-ext_2_16_3_33_F_214| true)
(= |memory_model::choice_ws-ext_2_30_3_18_F_215| false)
(= |memory_model::choice_ws-ext_2_30_3_33_F_216| false)
(= |memory_model::choice_ws-ext_0_53_2_19_F_217| true)
(= |memory_model::choice_ws-ext_0_53_3_17_F_218| true)
(= |memory_model::choice_ws-ext_2_19_3_17_F_219| false)
(= |memory_model::choice_ws-ext_0_54_2_17_F_220| true)
(= |memory_model::choice_ws-ext_0_54_2_29_F_221| true)
(= |memory_model::choice_ws-ext_0_54_3_13_F_222| true)
(= |memory_model::choice_ws-ext_0_54_3_32_F_223| true)
(= |memory_model::choice_ws-ext_0_82_2_17_F_224| false)
(= |memory_model::choice_ws-ext_0_82_2_29_F_225| false)
(= |memory_model::choice_ws-ext_0_82_3_13_F_226| false)
(= |memory_model::choice_ws-ext_0_82_3_32_F_227| false)
(= |memory_model::choice_ws-ext_2_17_3_13_F_228| false)
(= |memory_model::choice_ws-ext_2_17_3_32_F_229| true)
(= |memory_model::choice_ws-ext_2_29_3_13_F_230| false)
(= |memory_model::choice_ws-ext_2_29_3_32_F_231| false)
(= |memory_model::choice_ws-ext_0_55_3_22_F_232| true)
(= |memory_model::choice_ws-ext_0_34_3_9_F_233| true)
(= |memory_model::choice_ws-ext_0_35_3_10_F_234| true)
(= |memory_model::choice_ws-ext_0_94_3_10_F_235| false)
(= |memory_model::choice_ws-ext_0_36_3_11_F_236| true)
(= |main$tmp_guard0#3| #b00000001)
(= |__CPROVER_next_thread_id#3| #b00000000000000000000000000000001)
(= |__CPROVER_next_thread_id#6| #b00000000000000000000000000000010)
(= |__unbuffered_cnt#2| #b00000000000000000000000000000011)
(= |y$w_buff0_used#2| #b00000000)
(= |y$r_buff0_thd0#2| #b00000000)
(= |y$w_buff0#2| #b00000000000000000000000000000001)
(= |y$w_buff1_used#2| #b00000000)
(= |y$r_buff1_thd0#2| #b00000000)
(= |y$w_buff1#2| #b00000000000000000000000000000000)
(= |y#2| #b00000000000000000000000000000001)
(= |y#4| #b00000000000000000000000000000001)
(= |y$w_buff0_used#6| #b00000000)
(= |y$w_buff1_used#6| #b00000000)
(= |y$r_buff0_thd0#8| #b00000000)
(= |y$r_buff1_thd0#7| #b00000000)
(= |nondet_symex::nondet0| #b10000000000000000000000000000000)
(= |weak$$choice1#2| #b00000001)
(= |weak$$choice1#3| #b10000000)
(= |__unbuffered_p2_EAX$read_delayed#2| #b00000001)
(= |__unbuffered_p2_EAX$read_delayed_var$object#1| #b00000000000000000000000000000001)
(= |__unbuffered_p2_EAX#2| #b10000000000000000000000000000000)
(= |__unbuffered_p2_EAX#8| #b00000000000000000000000000000001)
(= |__unbuffered_p0_EAX#2| #b00000000000000000000000000000001)
(= |__unbuffered_p0_EBX#2| #b00000000000000000000000000000000)
(= |main$tmp_guard1#2| #b00000000)
(= |main$tmp_guard1#3| #b10000000)
(= |main$tmp_guard1#6| #b00000000)
(= |pthread_create::1::this_thread_id!1@0#0| #b10000000000000000000000000000000)
(= |z#2| #b00000000000000000000000000000001)
(= |x#2| #b00000000000000000000000000000000)
(= |__unbuffered_cnt#4| #b00000000000000000000000000000010)
(= |pthread_create::1::this_thread_id!2@0#0| #b00000000000000000000000000000000)
(= |y$w_buff0#4| #b00000000000000000000000000000000)
(= |y$w_buff0_used#11| #b00000000)
(= |y$r_buff0_thd0#11| #b00000000)
(= |y$r_buff1_thd0#9| #b00000000)
(= |y$r_buff1_thd0#10| #b10000000)
(= |y$r_buff0_thd1#2| #b00000000)
(= |y$r_buff1_thd1#2| #b00000000)
(= |y$r_buff1_thd1#3| #b10000000)
(= |y$r_buff0_thd2#2| #b00000000)
(= |y$r_buff1_thd2#2| #b00000000)
(= |y$r_buff1_thd2#3| #b10000000)
(= |y$r_buff0_thd3#2| #b00000000)
(= |y$r_buff1_thd3#2| #b00000000)
(= |y$r_buff1_thd3#3| #b10000000)
(= |y$r_buff0_thd2#4| #b00000001)
(= |y$w_buff0_used#14| #b00000001)
(= |y$r_buff0_thd2#6| #b00000001)
(= |y$w_buff0#7| #b00000000000000000000000000000001)
(= |y$w_buff1_used#10| #b00000000)
(= |y$r_buff1_thd2#5| #b00000000)
(= |y$w_buff1#5| #b00000000000000000000000000000000)
(= |y#6| #b00000000000000000000000000000000)
(= |y#8| #b00000000000000000000000000000001)
(= |y$w_buff0_used#18| #b00000000)
(= |y$w_buff1_used#14| #b00000000)
(= |y$r_buff0_thd2#12| #b00000001)
(= |y$r_buff1_thd2#10| #b00000000)
(= |__unbuffered_cnt#7| #b00000000000000000000000000000001)
(= |__unbuffered_cnt#9| #b00000000000000000000000000000010)
(= |pthread_create::1::this_thread_id!3@0#0| #b10000000000000000000000000000000)
(= |nondet_symex::nondet3| #b10000000000000000000000000000000)
(= |nondet_symex::nondet4| #b10000000000000000000000000000000)
(= |y#10| #b00000000000000000000000000000000)
(= |nondet_symex::nondet5| #b00000000000000000000000000000000)
(= |y$w_buff0_used#23| #b00000000)
(= |y$r_buff0_thd3#4| #b00000000)
(= |y$w_buff0#9| #b00000000000000000000000000000000)
(= |y$r_buff1_thd3#5| #b00000000)
(= |y$w_buff1_used#17| #b00000000)
(= |y$w_buff1#7| #b00000000000000000000000000000000)
(= |y$w_buff0_used#26| #b00000001)
(= |y$r_buff0_thd3#7| #b00000000)
(= |y$w_buff0#12| #b00000000000000000000000000000001)
(= |y$w_buff1_used#20| #b00000000)
(= |y$r_buff1_thd3#8| #b00000000)
(= |y$w_buff1#10| #b00000000000000000000000000000000)
(= |y#14| #b00000000000000000000000000000000)
(= |__unbuffered_cnt#11| #b00000000000000000000000000000000)
(= |__CPROVER_threads_exited#1$wclk$8| #b00001011)
(= |__CPROVER_threads_exited#2$rclk$8| #b11111010)
(= |__CPROVER_threads_exited#5$wclk$8| #b11111101)
(= |__CPROVER_threads_exited#7$wclk$8| #b11111111)
(= |__CPROVER_threads_exited#4$rclk$8| #b11111100)
(= |__CPROVER_threads_exited#3$wclk$8| #b11111011)
(= |__CPROVER_threads_exited#6$rclk$8| #b11111110)
(= |x#1$wclk$8| #b01011111)
(= |x#2$rclk$8| #b11110000)
(= |x#4$wclk$8| #b11110001)
(= |__unbuffered_cnt#6$wclk$8| #b11111001)
(= |__unbuffered_cnt#2$rclk$8| #b11111010)
(= |__unbuffered_cnt#10$wclk$8| #b11111000)
(= |__unbuffered_cnt#13$wclk$8| #b11110101)
(= |__unbuffered_cnt#1$wclk$8| #b00001100)
(= |__unbuffered_cnt#4$rclk$8| #b11111001)
(= |__unbuffered_cnt#7$rclk$8| #b11111000)
(= |__unbuffered_cnt#11$rclk$8| #b11110101)
(= |__unbuffered_p0_EAX#4$wclk$8| #b11101101)
(= |__unbuffered_p0_EAX#2$rclk$8| #b11111101)
(= |__unbuffered_p0_EBX#4$wclk$8| #b11110000)
(= |__unbuffered_p0_EBX#2$rclk$8| #b11111101)
(= |__unbuffered_p2_EAX#11$wclk$8| #b11100101)
(= |__unbuffered_p2_EAX#2$rclk$8| #b11111101)
(= |__unbuffered_p2_EAX$read_delayed#4$wclk$8| #b11100101)
(= |__unbuffered_p2_EAX$read_delayed#2$rclk$8| #b11111101)
(= |main$tmp_guard1#5| #b00000000)
(= |y#9$wclk$8| #b11110101)
(= |y#2$rclk$8| #b11111100)
(= |y#13$wclk$8| #b11100101)
(= |y#16$wclk$8| #b11110100)
(= |y#1$wclk$8| #b01100000)
(= |y#6$rclk$8| #b11110101)
(= |y#5$wclk$8| #b11111100)
(= |y#10$rclk$8| #b11100101)
(= |y#14$rclk$8| #b11110100)
(= |y$r_buff0_thd0#1$wclk$8| #b01100011)
(= |y$r_buff0_thd0#11$rclk$8| #b11110010)
(= |y$r_buff0_thd0#10$wclk$8| #b11111100)
(= |y$r_buff0_thd1#1$wclk$8| #b01100100)
(= |y$r_buff0_thd1#2$rclk$8| #b11110010)
(= |y$r_buff0_thd2#1$wclk$8| #b01100101)
(= |y$r_buff0_thd2#2$rclk$8| #b11110010)
(= |y$r_buff0_thd2#6$rclk$8| #b11110101)
(= |y$r_buff0_thd3#1$wclk$8| #b01100110)
(= |y$r_buff0_thd3#2$rclk$8| #b11110010)
(= |y$r_buff0_thd3#6$wclk$8| #b11100101)
(= |y$r_buff0_thd3#9$wclk$8| #b11110100)
(= |y$r_buff0_thd3#4$rclk$8| #b11100101)
(= |y$r_buff0_thd3#7$rclk$8| #b11110100)
(= |y$r_buff1_thd0#11$wclk$8| #b11110010)
(= |y$r_buff1_thd0#2$rclk$8| #b11111100)
(= |y$r_buff1_thd0#1$wclk$8| #b01110111)
(= |y$r_buff1_thd0#10$rclk$8| #b11110010)
(= |y$r_buff1_thd0#8$wclk$8| #b11111100)
(= |y$r_buff1_thd1#1$wclk$8| #b01111000)
(= |y$r_buff1_thd1#3$rclk$8| #b11110010)
(= |y$r_buff1_thd2#1$wclk$8| #b01111001)
(= |y$r_buff1_thd2#3$rclk$8| #b11110010)
(= |y$r_buff1_thd2#5$rclk$8| #b11110101)
(= |y$r_buff1_thd3#1$wclk$8| #b01111010)
(= |y$r_buff1_thd3#3$rclk$8| #b11110010)
(= |y$r_buff1_thd3#7$wclk$8| #b11100101)
(= |y$r_buff1_thd3#10$wclk$8| #b11110100)
(= |y$r_buff1_thd3#5$rclk$8| #b11100101)
(= |y$r_buff1_thd3#4$wclk$8| #b11110010)
(= |y$r_buff1_thd3#8$rclk$8| #b11110100)
(= |y$w_buff0#6$wclk$8| #b11110010)
(= |y$w_buff0#2$rclk$8| #b11111100)
(= |y$w_buff0#11$wclk$8| #b11100101)
(= |y$w_buff0#1$wclk$8| #b01111101)
(= |y$w_buff0#4$rclk$8| #b11110010)
(= |y$w_buff0#7$rclk$8| #b11110101)
(= |y$w_buff0#9$rclk$8| #b11100101)
(= |y$w_buff0#12$rclk$8| #b11110100)
(= |y$w_buff0_used#13$wclk$8| #b11110010)
(= |y$w_buff0_used#2$rclk$8| #b11111100)
(= |y$w_buff0_used#22$wclk$8| #b11110101)
(= |y$w_buff0_used#25$wclk$8| #b11100101)
(= |y$w_buff0_used#28$wclk$8| #b11110100)
(= |y$w_buff0_used#1$wclk$8| #b01111110)
(= |y$w_buff0_used#11$rclk$8| #b11110010)
(= |y$w_buff0_used#10$wclk$8| #b11111100)
(= |y$w_buff0_used#14$rclk$8| #b11110101)
(= |y$w_buff0_used#23$rclk$8| #b11100101)
(= |y$w_buff0_used#26$rclk$8| #b11110100)
(= |y$w_buff1#4$wclk$8| #b11110010)
(= |y$w_buff1#2$rclk$8| #b11111100)
(= |y$w_buff1#9$wclk$8| #b11100101)
(= |y$w_buff1#1$wclk$8| #b01111111)
(= |y$w_buff1#5$rclk$8| #b11110101)
(= |y$w_buff1#7$rclk$8| #b11100101)
(= |y$w_buff1#10$rclk$8| #b11110100)
(= |y$w_buff1_used#9$wclk$8| #b11110010)
(= |y$w_buff1_used#2$rclk$8| #b11111100)
(= |y$w_buff1_used#16$wclk$8| #b11110101)
(= |y$w_buff1_used#19$wclk$8| #b11100101)
(= |y$w_buff1_used#22$wclk$8| #b11110100)
(= |y$w_buff1_used#1$wclk$8| #b10001100)
(= |y$w_buff1_used#10$rclk$8| #b11110101)
(= |y$w_buff1_used#8$wclk$8| #b11111100)
(= |y$w_buff1_used#17$rclk$8| #b11100101)
(= |y$w_buff1_used#20$rclk$8| #b11110100)
(= |z#1$wclk$8| #b10010000)
(= |z#2$rclk$8| #b11101101)
(= |z#4$wclk$8| #b11101011)
(= |weak$$choice1#8$wclk$8| #b11100101)
(= |weak$$choice1#3$rclk$8| #b11111101)
(= __unbuffered_p2_EAX$read_delayed_var$object #b00000000000000000000000000000001)
(= |__unbuffered_p0_EAX#1$wclk$8| #b00010000)
(= |__unbuffered_p0_EBX#1$wclk$8| #b00010001)
(= |__unbuffered_p2_EAX#1$wclk$8| #b00010010)
(= |__unbuffered_p2_EAX#10$wclk$8| #b11111101)
(= |__unbuffered_p2_EAX$read_delayed#1$wclk$8| #b00100101)
(= |__unbuffered_p2_EAX$read_delayed_var#1$wclk$8| #b00100110)
(= |__unbuffered_p2_EAX$read_delayed_var#2$wclk$8| #b11100101)
(= |y$flush_delayed#1$wclk$8| #b01100001)
(= |y$flush_delayed#3$wclk$8| #b11100101)
(= |y$mem_tmp#1$wclk$8| #b01100010)
(= |y$mem_tmp#2$wclk$8| #b11100101)
(= |y$r_buff0_thd2#5$wclk$8| #b11110010)
(= |y$r_buff0_thd2#14$wclk$8| #b11110101)
(= |y$r_buff1_thd1#4$wclk$8| #b11110010)
(= |y$r_buff1_thd2#4$wclk$8| #b11110010)
(= |y$r_buff1_thd2#11$wclk$8| #b11110101)
(= |weak$$choice0#1$wclk$8| #b01001100)
(= |weak$$choice0#2$wclk$8| #b11100101)
(= |weak$$choice1#1$wclk$8| #b01001101)
(= |weak$$choice1#7$wclk$8| #b11111101)
(= |weak$$choice2#1$wclk$8| #b01001110)
(= |weak$$choice2#2$wclk$8| #b11100101)
(= t1$59$spwnclk$8 #b10010100)
(= t1$64$spwnclk$8 #b10011001)
(= t1$69$spwnclk$8 #b10101001)
(= |main::1::t2055!0@1$wclk$8| #b00000000)
(= |main::1::t2056!0@1$wclk$8| #b00000001)
(= __unbuffered_p2_EAX$read_delayed_var$object$wclk$8 #b00000010)
(= |__CPROVER_dead_object#1$wclk$8| #b00000011)
(= |__CPROVER_deallocated#1$wclk$8| #b00000100)
(= |__CPROVER_malloc_is_new_array#1$wclk$8| #b00000101)
(= |__CPROVER_malloc_object#1$wclk$8| #b00000110)
(= |__CPROVER_malloc_size#1$wclk$8| #b00000111)
(= |__CPROVER_memory_leak#1$wclk$8| #b00001000)
(= |__CPROVER_next_thread_id#1$wclk$8| #b00001001)
(= |__CPROVER_pipe_count#1$wclk$8| #b00001010)
(= |__unbuffered_p2_EAX$flush_delayed#1$wclk$8| #b00010011)
(= |__unbuffered_p2_EAX$mem_tmp#1$wclk$8| #b00011000)
(= |__unbuffered_p2_EAX$r_buff0_thd0#1$wclk$8| #b00011001)
(= |__unbuffered_p2_EAX$r_buff0_thd1#1$wclk$8| #b00011010)
(= |__unbuffered_p2_EAX$r_buff0_thd2#1$wclk$8| #b00011011)
(= |__unbuffered_p2_EAX$r_buff0_thd3#1$wclk$8| #b00011100)
(= |__unbuffered_p2_EAX$r_buff1_thd0#1$wclk$8| #b00100000)
(= |__unbuffered_p2_EAX$r_buff1_thd1#1$wclk$8| #b00100001)
(= |__unbuffered_p2_EAX$r_buff1_thd2#1$wclk$8| #b00100010)
(= |__unbuffered_p2_EAX$r_buff1_thd3#1$wclk$8| #b00100100)
(= |__unbuffered_p2_EAX$w_buff0#1$wclk$8| #b01000011)
(= |__unbuffered_p2_EAX$w_buff0_used#1$wclk$8| #b01000111)
(= |__unbuffered_p2_EAX$w_buff1#1$wclk$8| #b01001000)
(= |__unbuffered_p2_EAX$w_buff1_used#1$wclk$8| #b01001001)
(= |main$tmp_guard0#1$wclk$8| #b01001010)
(= |main$tmp_guard1#1$wclk$8| #b01001011)
(= |y$read_delayed#1$wclk$8| #b01111011)
(= |y$read_delayed_var#1$wclk$8| #b01111100)
(= |main::1::t2054!0@1#1$wclk$8| #b10010001)
(= |__CPROVER_next_thread_id#2$wclk$8| #b10010010)
(= |main::1::t2054!0@1#2$wclk$8| #b10010011)
(= |main::1::t2055!0@1#1$wclk$8| #b10010101)
(= |__CPROVER_next_thread_id#3$rclk$8| #b10010110)
(= |__CPROVER_next_thread_id#5$wclk$8| #b10010110)
(= |main::1::t2055!0@1#2$wclk$8| #b10010111)
(= |main::1::t2056!0@1#1$wclk$8| #b10011011)
(= |__CPROVER_next_thread_id#6$rclk$8| #b10100000)
(= |__CPROVER_next_thread_id#8$wclk$8| #b10100000)
(= |main::1::t2056!0@1#2$wclk$8| #b10100001)
(= |main$tmp_guard0#2$wclk$8| #b11111010)
(= |main$tmp_guard0#3$rclk$8| #b11111011)
(= |y$r_buff0_thd0#2$rclk$8| #b11111100)
(= |main$tmp_guard1#3$rclk$8| #b11111101)
(= |__unbuffered_p2_EAX$read_delayed_var$object#1$rclk$8| #b11111101)
(= |main$tmp_guard1#4$wclk$8| #b11111101)
(= |main$tmp_guard1#5$rclk$8| #b11111110)
(= |main$tmp_guard1#6$rclk$8| #b11111111)
(= array_of.0 @fun_7)
(= |__CPROVER_threads_exited#2| @fun_7)
(= |__CPROVER_threads_exited#4| @fun_9)
(= |__CPROVER_threads_exited#6| @fun_11)
(function @fun_7
 (type (Array (_ BitVec 32) (_ BitVec 1)))
 (= (@fun_7 #b00000000000000000000000000000000) #b0)
 (= (@fun_7 #b10000000000000000000000000000000) #b0)
 (default #b1))
(function @fun_9
 (type (Array (_ BitVec 32) (_ BitVec 1)))
 (= (@fun_9 #b00000000000000000000000000000000) #b0)
 (default #b1))
(function @fun_11
 (type (Array (_ BitVec 32) (_ BitVec 1)))
 (default #b1))

real	0m0.022s
user	0m0.018s
sys	0m0.004s
State: AC Run_time: 0.023923158645629883